NAME : CON3-3.5911866.tour
COMMENT : Cost = 0_5911866
COMMENT : Found by LKH [Keld Helsgaun] Sat Sep  9 21:17:05 2017
TYPE : TOUR
DIMENSION : 54
TOUR_SECTION
1
33
2
45
29
14
51
21
20
8
27
32
11
22
38
24
49
52
28
31
30
42
41
12
6
34
19
46
44
39
7
54
3
37
18
50
40
26
5
53
9
25
23
13
16
48
43
47
17
15
4
10
35
36
-1
EOF
